(set-logic ALL)
(set-option :produce-models true)
(declare-sort BoundSet 0)
(declare-sort UnboundSet 0)
(declare-fun IsEatingTogether (BoundSet) Bool)
(declare-fun IsSmiling (BoundSet) Bool)
(assert (not (=> (exists ((c BoundSet)) (exists ((a BoundSet)) (and (IsEatingTogether a) (IsSmiling c)))) (exists ((c BoundSet)) (exists ((a BoundSet)) (and (IsEatingTogether a) (IsSmiling c)))))))
(check-sat)
(get-model)